33D32945 STP File, STP Format Version 1.0

SECTION Comments
Name "edge_n10_d2_s30"
Problem "Euclidean Steiner Tree Problem"
Remark "Generated with STPGenerator. 2 dimensions."
END

SECTION Graph
Nodes 10
END

SECTION Coordinates
DD 0 0.2299670750 0.2299670750
DD 1 0.8697586934 0.8697586934
DD 2 0.5547460311 0.5547460311
DD 3 0.5776126504 0.5776126504
DD 4 0.9940509931 0.9940509931
DD 5 0.5953307052 0.5953307052
DD 6 0.7999637326 0.7999637326
DD 7 0.8187845688 0.8187845688
DD 8 0.6298717496 0.6298717496
DD 9 0.5035535896 0.5035535896
END
